% Logging successfully configured
=====UNKNOWN=====
% time elapsed: 300.03 s
%%%mzn-stat: initTime=0.015544611
%%%mzn-stat: nodes=521261
%%%mzn-stat: restarts=0
%%%mzn-stat: peakDepth=48
%%%mzn-stat: solveTime=299.644768184
%%%mzn-stat: variables=1457
%%%mzn-stat: propagators=5839
%%%mzn-stat: failures=443365
%%%mzn-stat: propagations=637736477
%%%mzn-stat: nogoods=443365
%%%mzn-stat: numAtomicConstraintsPropagated=0
%%%mzn-stat: circuitNumber4951PropagationsThatFoundConflict=992
%%%mzn-stat: circuitNumber4951TotalFixedEdgesAtConflict=66052
%%%mzn-stat: circuitNumber4951NumberOfConflicts=992
%%%mzn-stat: circuitNumber4951PropagationsThatPruned=41214
%%%mzn-stat: circuitNumber4951PropagationsTotal=437343
%%%mzn-stat: AverageConflictSize=13.50591048007849
%%%mzn-stat: NumUnitNogoodsLearned=5
%%%mzn-stat: AverageLearnedNogoodLength=49.19733176953526
%%%mzn-stat: AverageBacktrackAmount=0
%%%mzn-stat: AverageLbd=25.874978854893822
%%%mzn-stat: 2AutonomousSearchNumBackupCalled=0
%%%mzn-stat: 2AutonomousSearchNumPredicatesRemoved=0
%%%mzn-stat: 2AutonomousSearchNumCalls=0
%%%mzn-stat: 2AutonomousSearchNumPredicatesAdded=6244
%%%mzn-stat: 2AutonomousSearchAverageSizeOfHeap=0
%%%mzn-stat: 2AutonomousSearchNumAssignedPredicatesEncountered=0
%%%mzn-stat-end
